; benchmark generated from python API
(set-info :status unknown)
(declare-datatypes ((IntState 0)) (((Mk1 (val1 Int)) (Mk2 (val2 Int)))))
 (declare-fun c_main_~i~6 () Int)
(declare-fun c_main_~k~6 () Int)
(declare-fun c_main_~j~6 () Int)
(assert
 (let (($x50 (<= c_main_~i~6 3)))
 (let (($x175 (exists ((main_~i~6_st IntState) (val!84 Int) )(let ((?x56 (val2 main_~i~6_st)))
 (let (($x70 (<= ?x56 4)))
 (let (($x136 (and (<= c_main_~j~6 (+ (* 2 ?x56) 2)) $x70 (<= ?x56 c_main_~k~6))))
 (let (($x52 (not (= main_~i~6_st (Mk1 val!84)))))
 (and $x52 $x136))))))
 ))
 (let (($x109 (<= c_main_~j~6 (+ (* 2 c_main_~i~6) 2))))
 (let (($x77 (<= c_main_~i~6 4)))
 (let (($x27 (<= c_main_~j~6 (+ (* 2 c_main_~i~6) 1))))
 (let ((?x124 (* 2 c_main_~i~6)))
 (let (($x169 (<= c_main_~j~6 ?x124)))
 (let (($x86 (exists ((v_nnf_96 Int) )(let (($x132 (<= v_nnf_96 4)))
 (let (($x101 (<= c_main_~j~6 (+ (* 2 v_nnf_96) 2))))
 (and (<= (+ v_nnf_96 2) c_main_~k~6) $x101 $x132))))
 ))
 (let (($x103 (<= c_main_~i~6 2)))
 (and (and $x27 $x77 $x103 $x86 $x169 $x50) (not (and $x27 $x77 $x109 $x175 $x50)))))))))))))
(check-sat)
